c ****************************************************************
c **     This is a Sat-2003 Competition *SHUFFLED* instance     **
c ****************************************************************
c N.B. This header has been added to the file after the competition
c Please do contact L. Simon for more informations (simon@lri.fr)
c 
c Bench submitted by: Rachel Bevan (McGill University, Montreal, CA)
c              email: rachel@mcb.mcgill.ca
c 
c The original name of this formula was: 
c    handmade/bevan/cnf/marg3x3add4d1.cnf
c Category : HandMade
c The name used during the competition was: 
c     handmade/set103/sat03-1447.cnf
c The random seed used to shuffle this instance  was: 1700167696
c 
c CPU time of solvers on this bench during the first stage 
c  (including Hors-Concours solvers):
c   +------------+--------+--------+
c   | Solver     | Time   | Answer |
c   +------------+--------+--------+
c   | lsat       |   0.00 |  UNSAT |
c   | marchsp    |   0.01 |  UNSAT |
c   | marchtt    |   0.01 |  UNSAT |
c   | tts        |   0.03 |  UNSAT |
c   | berkmin561 |   0.18 |  UNSAT |
c   | forklift   |   0.20 |  UNSAT |
c   | zchaff     |   0.29 |  UNSAT |
c   | siege      |   0.64 |  UNSAT |
c   | jerusat1a  |   0.68 |  UNSAT |
c   | berkmin62  |   0.71 |  UNSAT |
c   | jerusat1b  |   0.73 |  UNSAT |
c   | satzilla   |   0.78 |  UNSAT |
c   | satnik     |   0.98 |  UNSAT |
c   | satzoo0    |   1.86 |  UNSAT |
c   | kcnfs      |   2.45 |  UNSAT |
c   | bmsat      |   3.25 |  UNSAT |
c   | jerusat1c  |   3.71 |  UNSAT |
c   | xqingting  |   4.08 |  UNSAT |
c   | satzoo1    |   4.31 |  UNSAT |
c   | funex      |   5.35 |  UNSAT |
c   | jquest2    |   7.75 |  UNSAT |
c   | sato       |  11.25 |  UNSAT |
c   | oepir      |  15.34 |  UNSAT |
c   | satzilla2  |  31.01 |  UNSAT |
c   | limmat     |  97.31 |  UNSAT |
c   | amvo       | 900.00 |   --   |
c   | compsat    | 900.00 |   --   |
c   | farseer    | 900.00 |   --   |
c   | marchxq    | 900.00 |   --   |
c   | opensat    | 900.00 |   --   |
c   | qingting   | 900.00 |   --   |
c   | saturn     | 900.00 |   --   |
c   | unitwalk   | 900.00 |   --   |
c   +------------+--------+--------+
c
c Old header begins here:
c The random seed used to shuffle this instance was seed=1700167696
p cnf 36 144
-25 1 -24 14 0
30 -19 -35 13 0
-36 -20 -28 -11 0
-30 -35 -13 -19 0
-2 -12 -36 16 0
-3 32 23 30 0
6 -34 22 -23 0
36 20 -28 -11 0
5 -22 -28 -4 0
-9 -7 21 -1 0
8 26 -25 -4 0
10 -27 11 -15 0
-9 35 31 3 0
-30 -23 32 -3 0
-32 -27 29 12 0
11 36 28 20 0
22 4 -5 28 0
21 -7 1 9 0
18 24 7 13 0
22 -28 4 5 0
20 -26 34 -17 0
30 -32 23 3 0
-5 21 15 31 0
29 -8 6 33 0
29 32 12 27 0
-23 -6 -22 -34 0
35 -9 -3 -31 0
-33 -2 14 10 0
-12 2 36 16 0
-19 -13 30 35 0
24 14 25 1 0
-36 -20 28 11 0
-16 19 -18 17 0
-20 -26 17 34 0
-14 -10 -33 -2 0
-12 -2 36 -16 0
17 16 -19 -18 0
14 2 -33 -10 0
-20 26 -17 34 0
3 -32 -30 -23 0
8 33 29 -6 0
-31 -21 5 -15 0
-21 -15 -5 31 0
15 11 27 10 0
-34 -26 20 17 0
36 28 -20 -11 0
-24 -25 -1 -14 0
2 -12 -16 -36 0
22 6 34 23 0
-27 15 10 -11 0
-27 -32 -29 -12 0
-33 -6 -8 29 0
4 -22 28 5 0
15 -31 21 5 0
9 -21 7 1 0
-23 -22 34 6 0
22 -6 -23 34 0
22 23 -6 -34 0
-10 11 -15 27 0
-26 4 -25 8 0
-1 -7 -21 9 0
-3 -32 30 -23 0
7 21 1 -9 0
-35 30 19 -13 0
-15 21 -5 -31 0
-14 24 -25 1 0
-7 -18 13 24 0
23 6 -34 -22 0
-22 -6 34 23 0
-4 22 -5 -28 0
12 -2 16 36 0
12 27 -32 -29 0
26 8 25 4 0
18 -24 13 -7 0
32 30 3 -23 0
-17 18 -19 16 0
-19 -30 35 13 0
14 -25 -1 24 0
-4 28 -22 -5 0
-36 12 -16 -2 0
-16 19 -17 18 0
27 -15 -11 10 0
31 35 -3 9 0
5 22 28 -4 0
7 -21 -1 -9 0
25 8 -26 -4 0
27 -12 29 -32 0
-16 -17 -19 -18 0
-21 31 15 5 0
15 -21 -5 -31 0
4 -28 -5 -22 0
-26 -20 -34 -17 0
-29 33 -6 -8 0
-16 17 -19 18 0
-8 -25 26 4 0
23 3 -30 32 0
20 28 -11 -36 0
-30 23 -3 -32 0
-10 -2 14 33 0
35 -30 19 -13 0
17 19 16 18 0
17 20 26 34 0
15 -10 -27 11 0
-18 24 -13 7 0
-10 15 27 -11 0
-3 -9 31 -35 0
-31 -35 -3 9 0
26 17 -20 -34 0
13 -18 7 -24 0
35 13 30 19 0
-31 -35 3 -9 0
36 -20 -28 11 0
-24 -14 25 1 0
25 -8 4 -26 0
29 8 -33 6 0
8 33 -29 6 0
1 -9 -7 -21 0
9 31 3 -35 0
-29 -27 12 32 0
7 21 9 -1 0
-1 25 -24 14 0
-13 -7 24 18 0
3 9 -31 35 0
-29 -8 6 -33 0
-24 -13 7 18 0
13 19 -30 -35 0
-1 25 24 -14 0
10 33 -2 -14 0
-29 8 -6 -33 0
10 -33 -14 2 0
-8 26 25 -4 0
-15 31 21 5 0
16 -18 -17 19 0
2 12 36 -16 0
-24 -18 -7 -13 0
-36 16 12 2 0
-11 -15 -10 -27 0
-12 32 29 -27 0
20 -17 26 -34 0
10 14 33 2 0
-26 -25 -8 -4 0
-36 20 -28 11 0
2 33 -14 -10 0
-12 27 32 -29 0
